%chk=methane_wfx.chk
# B3LYP/6-311G(d,p) Geom=Check Guess=Read Output=wfx

Methane

0 1

methane.wfx
