%chk=methane_chelpg.chk
# B3LYP/6-311G(d,p) Geom=Check Guess=Read Pop=CHelpG IOp(6/50=1)

Methane

0 1

methane_chelpg.esp
