%chk=methane_nbo.chk
# B3LYP/6-311G(d,p) Geom=Check Guess=Read Pop=NPA

Methane

0 1
