%chk=methane_mk.chk
# B3LYP/6-311G(d,p) Geom=Check Pop=MK IOp(6/50=1)

Methane

0 1

methane_mk.esp
